&input
zasr='simple'
fildyn='C.dyn'
flfrc='C.fc'
la2F=.true.
/
