&control
    calculation='vc-relax'
    restart_mode='from_scratch',
    prefix='C',
    wf_collect=.true.
    pseudo_dir = './',
    outdir='/scratch/job/tmp'
    etot_conv_thr = 1d-5,
    forc_conv_thr=1d-5,
 /
&system
 ibrav = 0,
! celldm(1) = 7.0656,
 nat = 8,
 ntyp = 2,
 ecutwfc = 60,
 ecutrho = 720
 nbnd = 24
! occupations = 'fixed'
  occupations = 'smearing'
  smearing = 'mv'
  degauss = 0.03    
  la2F = .true.
 /
 &electrons
    conv_thr =  1.0d-10
    diagonalization = 'cg'
    mixing_beta = 0.6
 /
 &ions
 ion_dynamics='bfgs'
 /
 &cell
 cell_dynamics='bfgs'
 press=0.0
 press_conv_thr=0.01
 /
CELL_PARAMETERS {bohr} 
 6.7500	0.0000	0.0000
 0.0000	6.7500	0.0000
 0.0000 0.0000	6.7500

ATOMIC_SPECIES
 C  12.01  C.UPF
 N  14.00  N.UPF
ATOMIC_POSITIONS (crystal)
C  0.0000000000000000  0.0000000000000000  0.0000000000000000
C  0.0000000000000000  0.5000000000000000  0.5000000000000000
C  0.5000000000000000  0.0000000000000000  0.5000000000000000
C  0.5000000000000000  0.5000000000000000  0.0000000000000000
N  0.2500000000000000  0.2500000000000000  0.7500000000000000
C  0.2500000000000000  0.7500000000000000  0.2500000000000000
C  0.7500000000000000  0.2500000000000000  0.2500000000000000
C  0.7500000000000000  0.7500000000000000  0.7500000000000000
K_POINTS {automatic}
15 15 15 0 0 0
